couv2.dat
points = {
< 1, 1>,
< 1, 2>,
< 1, 3>, 
< 1, 4>,
< 2, 1>,
< 2, 2>,
< 2, 3>, 
< 2, 4>
};

antennes = {
< 3.6, 120 >,
< 2.4, 100 >
};

visibilite = [
[ 1 1 1 0 0 0 0 0 ]
[ 1 1 1 0 0 0 0 0 ]
[ 1 1 0 0 0 0 1 0 ]
[ 0 1 1 0 0 0 1 0 ]
[ 1 1 1 0 0 1 0 1 ]
[ 1 1 1 0 1 0 0 0 ]
[ 1 0 1 1 0 0 0 1 ]
[ 1 1 1 0 0 0 1 0 ]
];

