couv2.res
180
3.6, 2 1
0.4, 1 1
0.4, 1 2
0.4, 1 4
0.4, 2 1
0.4, 2 2
0.4, 2 4
